; benchmark generated from python API
(set-info :status unknown)
(declare-datatypes ((IntState 0)) (((Mk1 (val1 Int)) (Mk2 (val2 Int)))))
 (declare-fun c_main_~i~6 () Int)
(declare-fun c_main_~j~6 () Int)
(declare-fun c_main_~k~6 () Int)
(assert
 (let (($x136 (<= c_main_~i~6 3)))
 (let (($x176 (exists ((v_nnf_96_st IntState) (val!151 Int) )(let ((?x56 (val2 v_nnf_96_st)))
 (let (($x143 (<= ?x56 4)))
 (let (($x86 (and (<= (+ ?x56 2) c_main_~k~6) (<= c_main_~j~6 (+ (* 2 ?x56) 2)) $x143)))
 (let (($x52 (not (= v_nnf_96_st (Mk1 val!151)))))
 (and $x52 $x86))))))
 ))
 (let (($x117 (<= c_main_~i~6 4)))
 (let (($x132 (<= c_main_~j~6 (+ (* 2 c_main_~i~6) 1))))
 (let ((?x42 (* 2 c_main_~i~6)))
 (let (($x89 (<= c_main_~j~6 ?x42)))
 (let (($x118 (exists ((v_nnf_96 Int) )(let (($x85 (<= v_nnf_96 4)))
 (and (<= (+ v_nnf_96 2) c_main_~k~6) (<= c_main_~j~6 (+ (* 2 v_nnf_96) 2)) $x85)))
 ))
 (let (($x35 (<= c_main_~i~6 2)))
 (let (($x24 (<= c_main_~j~6 (+ ?x42 2))))
 (and (and $x132 $x117 $x24 $x35 $x118 $x89 $x136) (not (and $x132 $x117 $x176 $x136)))))))))))))
(check-sat)
